50
1 0 8
2 0 1
2 1 19
3 0 5
3 1 6
3 2 15
4 0 7
4 1 17
4 2 9
4 3 18
5 0 23
5 1 16
5 2 15
5 3 18
5 4 20
6 0 6
6 1 10
6 2 10
6 3 3
6 4 15
6 5 23
7 0 6
7 1 15
7 2 6
7 3 8
7 4 5
7 5 16
7 6 17
8 0 17
8 1 17
8 2 10
8 3 18
8 4 15
8 5 8
8 6 4
8 7 13
9 0 12
9 1 22
9 2 19
9 3 14
9 4 22
9 5 22
9 6 8
9 7 11
9 8 10
10 0 25
10 1 17
10 2 23
10 3 2
10 4 3
10 5 11
10 6 4
10 7 9
10 8 7
10 9 11
11 0 2
11 1 2
11 2 8
11 3 16
11 4 15
11 5 21
11 6 1
11 7 25
11 8 24
11 9 21
11 10 10
12 0 21
12 1 6
12 2 2
12 3 6
12 4 20
12 5 22
12 6 13
12 7 22
12 8 2
12 9 12
12 10 12
12 11 24
13 0 2
13 1 24
13 2 11
13 3 24
13 4 4
13 5 11
13 6 3
13 7 23
13 8 9
13 9 4
13 10 9
13 11 16
13 12 8
14 0 21
14 1 3
14 2 19
14 3 21
14 4 13
14 5 20
14 6 2
14 7 4
14 8 8
14 9 18
14 10 4
14 11 22
14 12 5
14 13 6
15 0 1
15 1 17
15 2 20
15 3 1
15 4 22
15 5 21
15 6 22
15 7 13
15 8 7
15 9 18
15 10 7
15 11 4
15 12 24
15 13 19
15 14 15
16 0 12
16 1 11
16 2 6
16 3 24
16 4 6
16 5 1
16 6 4
16 7 7
16 8 6
16 9 20
16 10 5
16 11 4
16 12 8
16 13 13
16 14 11
16 15 13
17 0 22
17 1 4
17 2 9
17 3 2
17 4 2
17 5 23
17 6 14
17 7 7
17 8 4
17 9 24
17 10 8
17 11 11
17 12 7
17 13 10
17 14 8
17 15 12
17 16 5
18 0 13
18 1 19
18 2 14
18 3 5
18 4 22
18 5 25
18 6 19
18 7 5
18 8 8
18 9 23
18 10 11
18 11 12
18 12 15
18 13 12
18 14 4
18 15 12
18 16 11
18 17 8
19 0 14
19 1 12
19 2 23
19 3 21
19 4 19
19 5 1
19 6 5
19 7 8
19 8 7
19 9 18
19 10 12
19 11 6
19 12 13
19 13 2
19 14 23
19 15 13
19 16 4
19 17 15
19 18 22
20 0 10
20 1 21
20 2 13
20 3 16
20 4 16
20 5 1
20 6 19
20 7 13
20 8 12
20 9 10
20 10 12
20 11 4
20 12 2
20 13 19
20 14 10
20 15 3
20 16 10
20 17 16
20 18 7
20 19 6
21 0 12
21 1 16
21 2 2
21 3 9
21 4 13
21 5 21
21 6 21
21 7 16
21 8 15
21 9 22
21 10 23
21 11 25
21 12 23
21 13 13
21 14 20
21 15 17
21 16 2
21 17 13
21 18 21
21 19 8
21 20 25
22 0 9
22 1 3
22 2 14
22 3 20
22 4 4
22 5 11
22 6 4
22 7 13
22 8 19
22 9 10
22 10 4
22 11 5
22 12 17
22 13 25
22 14 22
22 15 5
22 16 19
22 17 12
22 18 14
22 19 19
22 20 10
22 21 20
23 0 9
23 1 16
23 2 17
23 3 22
23 4 4
23 5 20
23 6 4
23 7 23
23 8 16
23 9 16
23 10 20
23 11 15
23 12 14
23 13 12
23 14 4
23 15 2
23 16 14
23 17 5
23 18 6
23 19 22
23 20 16
23 21 18
23 22 13
24 0 1
24 1 9
24 2 17
24 3 16
24 4 18
24 5 1
24 6 20
24 7 12
24 8 8
24 9 24
24 10 14
24 11 22
24 12 1
24 13 6
24 14 13
24 15 17
24 16 24
24 17 10
24 18 15
24 19 22
24 20 11
24 21 11
24 22 7
24 23 18
25 0 21
25 1 18
25 2 14
25 3 8
25 4 4
25 5 21
25 6 17
25 7 1
25 8 9
25 9 8
25 10 24
25 11 15
25 12 6
25 13 20
25 14 19
25 15 23
25 16 8
25 17 14
25 18 24
25 19 4
25 20 11
25 21 11
25 22 5
25 23 22
25 24 23
26 0 18
26 1 23
26 2 21
26 3 18
26 4 21
26 5 20
26 6 5
26 7 15
26 8 17
26 9 2
26 10 3
26 11 6
26 12 2
26 13 3
26 14 20
26 15 16
26 16 10
26 17 2
26 18 7
26 19 20
26 20 21
26 21 10
26 22 9
26 23 12
26 24 7
26 25 15
27 0 23
27 1 3
27 2 8
27 3 14
27 4 16
27 5 3
27 6 17
27 7 14
27 8 24
27 9 9
27 10 9
27 11 8
27 12 3
27 13 22
27 14 20
27 15 20
27 16 8
27 17 18
27 18 17
27 19 22
27 20 16
27 21 15
27 22 1
27 23 4
27 24 18
27 25 21
27 26 22
28 0 5
28 1 24
28 2 25
28 3 18
28 4 23
28 5 11
28 6 12
28 7 10
28 8 3
28 9 15
28 10 12
28 11 25
28 12 22
28 13 6
28 14 12
28 15 13
28 16 5
28 17 23
28 18 3
28 19 14
28 20 18
28 21 3
28 22 3
28 23 16
28 24 21
28 25 16
28 26 3
28 27 6
29 0 20
29 1 1
29 2 10
29 3 12
29 4 21
29 5 4
29 6 11
29 7 7
29 8 12
29 9 21
29 10 15
29 11 17
29 12 20
29 13 22
29 14 19
29 15 24
29 16 22
29 17 3
29 18 12
29 19 8
29 20 25
29 21 22
29 22 25
29 23 13
29 24 25
29 25 20
29 26 7
29 27 13
29 28 8
30 0 18
30 1 19
30 2 11
30 3 11
30 4 7
30 5 18
30 6 16
30 7 10
30 8 16
30 9 8
30 10 11
30 11 4
30 12 24
30 13 8
30 14 18
30 15 20
30 16 24
30 17 24
30 18 2
30 19 11
30 20 10
30 21 16
30 22 3
30 23 22
30 24 18
30 25 16
30 26 19
30 27 9
30 28 20
30 29 12
31 0 8
31 1 6
31 2 13
31 3 18
31 4 6
31 5 12
31 6 4
31 7 7
31 8 15
31 9 16
31 10 22
31 11 5
31 12 1
31 13 12
31 14 23
31 15 19
31 16 7
31 17 6
31 18 9
31 19 12
31 20 23
31 21 15
31 22 23
31 23 3
31 24 13
31 25 21
31 26 10
31 27 24
31 28 1
31 29 2
31 30 5
32 0 21
32 1 24
32 2 8
32 3 7
32 4 9
32 5 4
32 6 17
32 7 21
32 8 7
32 9 17
32 10 9
32 11 4
32 12 4
32 13 13
32 14 19
32 15 24
32 16 8
32 17 1
32 18 6
32 19 14
32 20 10
32 21 24
32 22 22
32 23 10
32 24 7
32 25 25
32 26 25
32 27 2
32 28 22
32 29 8
32 30 18
32 31 16
33 0 14
33 1 9
33 2 16
33 3 9
33 4 10
33 5 11
33 6 10
33 7 20
33 8 18
33 9 24
33 10 14
33 11 2
33 12 21
33 13 10
33 14 16
33 15 9
33 16 8
33 17 12
33 18 5
33 19 16
33 20 22
33 21 4
33 22 14
33 23 4
33 24 5
33 25 20
33 26 21
33 27 18
33 28 16
33 29 15
33 30 23
33 31 3
33 32 6
34 0 1
34 1 16
34 2 6
34 3 7
34 4 21
34 5 23
34 6 11
34 7 21
34 8 7
34 9 22
34 10 16
34 11 24
34 12 4
34 13 1
34 14 1
34 15 24
34 16 16
34 17 6
34 18 5
34 19 9
34 20 25
34 21 23
34 22 24
34 23 15
34 24 15
34 25 15
34 26 23
34 27 5
34 28 20
34 29 2
34 30 20
34 31 1
34 32 24
34 33 14
35 0 8
35 1 5
35 2 10
35 3 15
35 4 25
35 5 8
35 6 16
35 7 17
35 8 20
35 9 11
35 10 24
35 11 19
35 12 13
35 13 18
35 14 24
35 15 9
35 16 25
35 17 21
35 18 3
35 19 14
35 20 19
35 21 11
35 22 10
35 23 11
35 24 17
35 25 8
35 26 9
35 27 10
35 28 16
35 29 3
35 30 10
35 31 18
35 32 11
35 33 18
35 34 8
36 0 8
36 1 10
36 2 15
36 3 11
36 4 11
36 5 7
36 6 17
36 7 16
36 8 13
36 9 12
36 10 17
36 11 21
36 12 15
36 13 21
36 14 3
36 15 2
36 16 17
36 17 13
36 18 25
36 19 5
36 20 20
36 21 5
36 22 23
36 23 7
36 24 7
36 25 9
36 26 20
36 27 13
36 28 15
36 29 25
36 30 21
36 31 13
36 32 17
36 33 21
36 34 4
36 35 21
37 0 4
37 1 12
37 2 24
37 3 3
37 4 11
37 5 18
37 6 20
37 7 18
37 8 17
37 9 6
37 10 6
37 11 4
37 12 9
37 13 23
37 14 5
37 15 23
37 16 16
37 17 18
37 18 9
37 19 15
37 20 12
37 21 1
37 22 24
37 23 8
37 24 12
37 25 11
37 26 9
37 27 15
37 28 6
37 29 16
37 30 20
37 31 22
37 32 7
37 33 4
37 34 17
37 35 15
37 36 3
38 0 24
38 1 2
38 2 16
38 3 22
38 4 10
38 5 14
38 6 7
38 7 18
38 8 5
38 9 25
38 10 2
38 11 16
38 12 6
38 13 22
38 14 11
38 15 16
38 16 2
38 17 3
38 18 10
38 19 11
38 20 8
38 21 2
38 22 16
38 23 23
38 24 3
38 25 21
38 26 25
38 27 11
38 28 5
38 29 13
38 30 1
38 31 1
38 32 11
38 33 1
38 34 3
38 35 14
38 36 20
38 37 4
39 0 14
39 1 13
39 2 23
39 3 13
39 4 15
39 5 19
39 6 5
39 7 14
39 8 14
39 9 5
39 10 21
39 11 24
39 12 16
39 13 16
39 14 20
39 15 4
39 16 21
39 17 4
39 18 8
39 19 14
39 20 25
39 21 8
39 22 11
39 23 22
39 24 25
39 25 23
39 26 22
39 27 19
39 28 23
39 29 10
39 30 1
39 31 3
39 32 6
39 33 25
39 34 18
39 35 11
39 36 13
39 37 4
39 38 13
40 0 22
40 1 8
40 2 25
40 3 14
40 4 13
40 5 2
40 6 19
40 7 15
40 8 10
40 9 10
40 10 7
40 11 19
40 12 8
40 13 18
40 14 6
40 15 10
40 16 3
40 17 14
40 18 20
40 19 3
40 20 12
40 21 20
40 22 17
40 23 18
40 24 19
40 25 11
40 26 14
40 27 5
40 28 4
40 29 24
40 30 18
40 31 3
40 32 20
40 33 11
40 34 12
40 35 25
40 36 8
40 37 18
40 38 7
40 39 20
41 0 12
41 1 8
41 2 18
41 3 5
41 4 24
41 5 23
41 6 5
41 7 3
41 8 20
41 9 25
41 10 11
41 11 2
41 12 12
41 13 9
41 14 12
41 15 25
41 16 24
41 17 22
41 18 20
41 19 14
41 20 6
41 21 17
41 22 7
41 23 20
41 24 8
41 25 16
41 26 21
41 27 6
41 28 22
41 29 5
41 30 13
41 31 13
41 32 7
41 33 25
41 34 9
41 35 12
41 36 24
41 37 22
41 38 9
41 39 25
41 40 22
42 0 11
42 1 15
42 2 7
42 3 18
42 4 20
42 5 2
42 6 16
42 7 9
42 8 20
42 9 23
42 10 12
42 11 13
42 12 1
42 13 21
42 14 4
42 15 9
42 16 14
42 17 11
42 18 16
42 19 21
42 20 15
42 21 6
42 22 18
42 23 2
42 24 9
42 25 19
42 26 8
42 27 24
42 28 10
42 29 7
42 30 10
42 31 6
42 32 25
42 33 8
42 34 23
42 35 23
42 36 14
42 37 4
42 38 15
42 39 20
42 40 15
42 41 22
43 0 20
43 1 14
43 2 17
43 3 24
43 4 2
43 5 10
43 6 13
43 7 1
43 8 8
43 9 9
43 10 8
43 11 17
43 12 2
43 13 25
43 14 7
43 15 12
43 16 1
43 17 17
43 18 12
43 19 25
43 20 13
43 21 20
43 22 3
43 23 4
43 24 11
43 25 23
43 26 9
43 27 4
43 28 22
43 29 10
43 30 15
43 31 23
43 32 12
43 33 19
43 34 10
43 35 24
43 36 21
43 37 16
43 38 6
43 39 3
43 40 6
43 41 6
43 42 19
44 0 23
44 1 16
44 2 3
44 3 15
44 4 6
44 5 7
44 6 13
44 7 25
44 8 16
44 9 7
44 10 18
44 11 18
44 12 15
44 13 11
44 14 24
44 15 21
44 16 11
44 17 7
44 18 1
44 19 2
44 20 12
44 21 6
44 22 18
44 23 17
44 24 5
44 25 15
44 26 4
44 27 16
44 28 3
44 29 20
44 30 11
44 31 5
44 32 5
44 33 16
44 34 20
44 35 19
44 36 12
44 37 24
44 38 18
44 39 19
44 40 10
44 41 22
44 42 23
44 43 19
45 0 1
45 1 7
45 2 21
45 3 6
45 4 16
45 5 7
45 6 12
45 7 17
45 8 21
45 9 8
45 10 16
45 11 23
45 12 10
45 13 9
45 14 9
45 15 18
45 16 17
45 17 16
45 18 3
45 19 11
45 20 6
45 21 11
45 22 1
45 23 17
45 24 7
45 25 23
45 26 15
45 27 24
45 28 2
45 29 20
45 30 4
45 31 3
45 32 13
45 33 2
45 34 11
45 35 9
45 36 1
45 37 15
45 38 17
45 39 12
45 40 3
45 41 9
45 42 7
45 43 18
45 44 21
46 0 19
46 1 5
46 2 5
46 3 1
46 4 12
46 5 25
46 6 16
46 7 8
46 8 25
46 9 17
46 10 14
46 11 24
46 12 20
46 13 21
46 14 5
46 15 4
46 16 12
46 17 9
46 18 9
46 19 13
46 20 9
46 21 19
46 22 8
46 23 16
46 24 8
46 25 5
46 26 17
46 27 19
46 28 2
46 29 16
46 30 1
46 31 21
46 32 18
46 33 12
46 34 10
46 35 5
46 36 21
46 37 18
46 38 7
46 39 20
46 40 24
46 41 18
46 42 13
46 43 3
46 44 17
46 45 23
47 0 4
47 1 5
47 2 1
47 3 24
47 4 11
47 5 16
47 6 23
47 7 8
47 8 5
47 9 15
47 10 7
47 11 8
47 12 9
47 13 19
47 14 6
47 15 24
47 16 19
47 17 19
47 18 7
47 19 2
47 20 23
47 21 8
47 22 23
47 23 2
47 24 14
47 25 6
47 26 5
47 27 15
47 28 12
47 29 4
47 30 1
47 31 4
47 32 11
47 33 25
47 34 5
47 35 3
47 36 17
47 37 16
47 38 11
47 39 12
47 40 24
47 41 13
47 42 3
47 43 11
47 44 7
47 45 20
47 46 4
48 0 25
48 1 15
48 2 13
48 3 13
48 4 6
48 5 14
48 6 23
48 7 6
48 8 6
48 9 15
48 10 20
48 11 21
48 12 11
48 13 25
48 14 7
48 15 9
48 16 7
48 17 6
48 18 4
48 19 25
48 20 1
48 21 6
48 22 21
48 23 14
48 24 16
48 25 4
48 26 15
48 27 25
48 28 6
48 29 15
48 30 20
48 31 18
48 32 15
48 33 20
48 34 19
48 35 2
48 36 24
48 37 25
48 38 3
48 39 14
48 40 3
48 41 22
48 42 8
48 43 19
48 44 9
48 45 23
48 46 25
48 47 1
49 0 8
49 1 8
49 2 24
49 3 13
49 4 6
49 5 5
49 6 7
49 7 7
49 8 12
49 9 20
49 10 2
49 11 10
49 12 3
49 13 22
49 14 23
49 15 25
49 16 14
49 17 24
49 18 4
49 19 5
49 20 2
49 21 15
49 22 25
49 23 13
49 24 16
49 25 7
49 26 23
49 27 15
49 28 20
49 29 7
49 30 7
49 31 4
49 32 9
49 33 14
49 34 24
49 35 17
49 36 21
49 37 5
49 38 5
49 39 4
49 40 10
49 41 25
49 42 9
49 43 19
49 44 7
49 45 14
49 46 1
49 47 6
49 48 8
